20435
1 0 0 1 0 0 1 0 1 1 0 1 1 1 1 0 0 1 1 0 0 0 0 0 1 0 0 1 1 0 
13 11 13 14 13 11 17 9 14 17 9 8 8 8 3 14 14 17 11 11 14 0 9 3 9 8 17 24 24 24 27 11 6 11 8 8 24 24 0 14 0 14 24 8 24 14 0 13 27 8 27 14 14 11 13 13 17 11 0 14 0 24 8 11 11 11 9 0 9 9 13 6 11 17 24 8 9 8 14 24 13 0 13 17 17 17 17 0 8 11 17 24 17 11 17 9 14 3 27 18 8 17 17 11 17 11 17 11 14 28 14 14 17 11 11 27 24 24 24 24 11 8 11 13 18 0 24 9 0 12 0 11 24 9 8 14 17 24 13 17 0 8 13 14 8 27 0 0 0 0 
